100 4950
1 2 3
1 3 1
1 4 2
1 5 4
1 6 3
1 7 3
1 8 5
1 9 5
1 10 5
1 11 2
1 12 2
1 13 2
1 14 4
1 15 3
1 16 4
1 17 3
1 18 5
1 19 2
1 20 5
1 21 3
1 22 2
1 23 1
1 24 2
1 25 1
1 26 3
1 27 2
1 28 1
1 29 3
1 30 2
1 31 5
1 32 3
1 33 1
1 34 4
1 35 1
1 36 1
1 37 4
1 38 2
1 39 5
1 40 3
1 41 3
1 42 3
1 43 1
1 44 4
1 45 5
1 46 2
1 47 2
1 48 2
1 49 1
1 50 3
1 51 2
1 52 4
1 53 1
1 54 5
1 55 1
1 56 3
1 57 2
1 58 3
1 59 4
1 60 4
1 61 1
1 62 5
1 63 2
1 64 1
1 65 4
1 66 3
1 67 3
1 68 2
1 69 5
1 70 2
1 71 4
1 72 5
1 73 2
1 74 2
1 75 2
1 76 2
1 77 3
1 78 5
1 79 5
1 80 5
1 81 3
1 82 1
1 83 1
1 84 4
1 85 4
1 86 2
1 87 2
1 88 5
1 89 3
1 90 3
1 91 4
1 92 3
1 93 5
1 94 3
1 95 2
1 96 3
1 97 2
1 98 3
1 99 3
1 100 5
2 3 2
2 4 4
2 5 5
2 6 5
2 7 1
2 8 4
2 9 1
2 10 2
2 11 3
2 12 1
2 13 1
2 14 4
2 15 5
2 16 1
2 17 5
2 18 4
2 19 2
2 20 5
2 21 4
2 22 4
2 23 2
2 24 5
2 25 1
2 26 5
2 27 2
2 28 1
2 29 1
2 30 2
2 31 3
2 32 5
2 33 5
2 34 2
2 35 1
2 36 4
2 37 5
2 38 1
2 39 1
2 40 1
2 41 4
2 42 4
2 43 2
2 44 1
2 45 3
2 46 5
2 47 1
2 48 2
2 49 4
2 50 5
2 51 4
2 52 2
2 53 2
2 54 1
2 55 2
2 56 4
2 57 4
2 58 2
2 59 5
2 60 5
2 61 3
2 62 2
2 63 1
2 64 4
2 65 3
2 66 5
2 67 1
2 68 2
2 69 4
2 70 5
2 71 1
2 72 3
2 73 5
2 74 1
2 75 4
2 76 5
2 77 5
2 78 4
2 79 2
2 80 1
2 81 1
2 82 2
2 83 1
2 84 1
2 85 4
2 86 5
2 87 4
2 88 1
2 89 2
2 90 4
2 91 5
2 92 3
2 93 1
2 94 4
2 95 2
2 96 2
2 97 1
2 98 4
2 99 3
2 100 5
3 4 3
3 5 4
3 6 3
3 7 4
3 8 4
3 9 2
3 10 5
3 11 4
3 12 4
3 13 1
3 14 4
3 15 5
3 16 5
3 17 3
3 18 3
3 19 5
3 20 1
3 21 2
3 22 1
3 23 4
3 24 4
3 25 3
3 26 4
3 27 4
3 28 5
3 29 1
3 30 4
3 31 5
3 32 2
3 33 2
3 34 2
3 35 1
3 36 1
3 37 2
3 38 3
3 39 1
3 40 2
3 41 5
3 42 1
3 43 1
3 44 1
3 45 4
3 46 3
3 47 3
3 48 1
3 49 3
3 50 3
3 51 5
3 52 3
3 53 1
3 54 3
3 55 1
3 56 1
3 57 1
3 58 3
3 59 5
3 60 2
3 61 2
3 62 5
3 63 2
3 64 3
3 65 4
3 66 1
3 67 2
3 68 3
3 69 3
3 70 5
3 71 3
3 72 4
3 73 1
3 74 1
3 75 2
3 76 5
3 77 3
3 78 1
3 79 2
3 80 5
3 81 4
3 82 5
3 83 4
3 84 3
3 85 3
3 86 1
3 87 3
3 88 1
3 89 5
3 90 3
3 91 2
3 92 2
3 93 4
3 94 5
3 95 4
3 96 4
3 97 5
3 98 1
3 99 5
3 100 3
4 5 5
4 6 4
4 7 4
4 8 2
4 9 4
4 10 2
4 11 3
4 12 1
4 13 4
4 14 1
4 15 5
4 16 1
4 17 1
4 18 3
4 19 3
4 20 5
4 21 3
4 22 4
4 23 1
4 24 2
4 25 4
4 26 2
4 27 5
4 28 1
4 29 3
4 30 3
4 31 2
4 32 1
4 33 4
4 34 3
4 35 5
4 36 2
4 37 2
4 38 2
4 39 4
4 40 1
4 41 2
4 42 1
4 43 5
4 44 5
4 45 3
4 46 2
4 47 4
4 48 5
4 49 2
4 50 5
4 51 4
4 52 3
4 53 3
4 54 2
4 55 2
4 56 4
4 57 2
4 58 3
4 59 1
4 60 1
4 61 5
4 62 2
4 63 1
4 64 1
4 65 5
4 66 1
4 67 4
4 68 3
4 69 4
4 70 4
4 71 3
4 72 3
4 73 1
4 74 3
4 75 5
4 76 2
4 77 2
4 78 1
4 79 5
4 80 3
4 81 3
4 82 5
4 83 1
4 84 1
4 85 5
4 86 1
4 87 3
4 88 5
4 89 2
4 90 2
4 91 4
4 92 1
4 93 2
4 94 5
4 95 2
4 96 3
4 97 2
4 98 3
4 99 3
4 100 2
5 6 2
5 7 3
5 8 2
5 9 1
5 10 5
5 11 5
5 12 5
5 13 2
5 14 5
5 15 3
5 16 2
5 17 4
5 18 5
5 19 5
5 20 2
5 21 4
5 22 2
5 23 1
5 24 3
5 25 3
5 26 5
5 27 1
5 28 5
5 29 4
5 30 2
5 31 4
5 32 2
5 33 2
5 34 3
5 35 3
5 36 1
5 37 4
5 38 5
5 39 4
5 40 5
5 41 3
5 42 3
5 43 3
5 44 3
5 45 5
5 46 3
5 47 4
5 48 3
5 49 2
5 50 1
5 51 3
5 52 4
5 53 2
5 54 1
5 55 2
5 56 5
5 57 3
5 58 5
5 59 4
5 60 5
5 61 4
5 62 4
5 63 3
5 64 4
5 65 5
5 66 3
5 67 4
5 68 2
5 69 1
5 70 5
5 71 5
5 72 5
5 73 5
5 74 2
5 75 3
5 76 5
5 77 3
5 78 2
5 79 3
5 80 2
5 81 5
5 82 5
5 83 2
5 84 4
5 85 1
5 86 3
5 87 2
5 88 3
5 89 2
5 90 1
5 91 5
5 92 4
5 93 4
5 94 2
5 95 5
5 96 1
5 97 4
5 98 4
5 99 3
5 100 5
6 7 2
6 8 3
6 9 1
6 10 5
6 11 3
6 12 2
6 13 5
6 14 5
6 15 3
6 16 4
6 17 3
6 18 4
6 19 2
6 20 2
6 21 4
6 22 5
6 23 3
6 24 4
6 25 1
6 26 4
6 27 2
6 28 5
6 29 4
6 30 2
6 31 1
6 32 3
6 33 1
6 34 1
6 35 3
6 36 3
6 37 5
6 38 1
6 39 1
6 40 4
6 41 5
6 42 4
6 43 2
6 44 5
6 45 4
6 46 5
6 47 1
6 48 1
6 49 2
6 50 3
6 51 1
6 52 3
6 53 5
6 54 3
6 55 4
6 56 5
6 57 1
6 58 3
6 59 4
6 60 2
6 61 5
6 62 3
6 63 1
6 64 2
6 65 5
6 66 5
6 67 3
6 68 1
6 69 4
6 70 4
6 71 1
6 72 5
6 73 4
6 74 1
6 75 2
6 76 2
6 77 1
6 78 5
6 79 3
6 80 4
6 81 1
6 82 3
6 83 1
6 84 3
6 85 3
6 86 4
6 87 1
6 88 5
6 89 3
6 90 2
6 91 4
6 92 3
6 93 3
6 94 4
6 95 3
6 96 5
6 97 1
6 98 2
6 99 5
6 100 5
7 8 4
7 9 5
7 10 1
7 11 2
7 12 2
7 13 2
7 14 5
7 15 2
7 16 3
7 17 2
7 18 1
7 19 2
7 20 5
7 21 4
7 22 1
7 23 3
7 24 3
7 25 5
7 26 1
7 27 3
7 28 5
7 29 5
7 30 3
7 31 4
7 32 3
7 33 3
7 34 4
7 35 3
7 36 5
7 37 5
7 38 2
7 39 2
7 40 4
7 41 5
7 42 3
7 43 5
7 44 5
7 45 2
7 46 5
7 47 4
7 48 1
7 49 2
7 50 4
7 51 2
7 52 5
7 53 4
7 54 2
7 55 1
7 56 5
7 57 5
7 58 2
7 59 2
7 60 2
7 61 1
7 62 3
7 63 2
7 64 4
7 65 1
7 66 2
7 67 1
7 68 2
7 69 2
7 70 4
7 71 5
7 72 4
7 73 1
7 74 2
7 75 3
7 76 3
7 77 2
7 78 4
7 79 1
7 80 2
7 81 5
7 82 4
7 83 1
7 84 2
7 85 3
7 86 5
7 87 5
7 88 5
7 89 1
7 90 5
7 91 3
7 92 4
7 93 3
7 94 3
7 95 3
7 96 2
7 97 2
7 98 4
7 99 5
7 100 1
8 9 3
8 10 1
8 11 2
8 12 5
8 13 3
8 14 5
8 15 1
8 16 1
8 17 4
8 18 5
8 19 1
8 20 3
8 21 3
8 22 3
8 23 5
8 24 2
8 25 2
8 26 1
8 27 4
8 28 1
8 29 3
8 30 5
8 31 5
8 32 4
8 33 2
8 34 4
8 35 5
8 36 3
8 37 5
8 38 2
8 39 2
8 40 1
8 41 3
8 42 4
8 43 1
8 44 2
8 45 2
8 46 5
8 47 5
8 48 4
8 49 4
8 50 5
8 51 2
8 52 5
8 53 5
8 54 1
8 55 2
8 56 5
8 57 3
8 58 1
8 59 5
8 60 3
8 61 2
8 62 1
8 63 5
8 64 1
8 65 4
8 66 1
8 67 3
8 68 3
8 69 4
8 70 1
8 71 5
8 72 1
8 73 3
8 74 3
8 75 2
8 76 4
8 77 2
8 78 1
8 79 2
8 80 4
8 81 4
8 82 2
8 83 1
8 84 4
8 85 5
8 86 3
8 87 5
8 88 5
8 89 5
8 90 3
8 91 2
8 92 1
8 93 2
8 94 1
8 95 5
8 96 2
8 97 2
8 98 1
8 99 5
8 100 5
9 10 5
9 11 5
9 12 4
9 13 4
9 14 5
9 15 4
9 16 4
9 17 3
9 18 4
9 19 5
9 20 5
9 21 3
9 22 4
9 23 2
9 24 5
9 25 2
9 26 3
9 27 4
9 28 2
9 29 4
9 30 2
9 31 1
9 32 1
9 33 2
9 34 2
9 35 5
9 36 3
9 37 3
9 38 1
9 39 3
9 40 3
9 41 5
9 42 2
9 43 5
9 44 1
9 45 2
9 46 5
9 47 1
9 48 3
9 49 4
9 50 4
9 51 2
9 52 1
9 53 1
9 54 1
9 55 1
9 56 1
9 57 2
9 58 1
9 59 5
9 60 2
9 61 5
9 62 5
9 63 2
9 64 3
9 65 5
9 66 5
9 67 1
9 68 1
9 69 5
9 70 2
9 71 2
9 72 4
9 73 5
9 74 2
9 75 5
9 76 2
9 77 5
9 78 2
9 79 5
9 80 1
9 81 3
9 82 5
9 83 2
9 84 4
9 85 5
9 86 1
9 87 4
9 88 4
9 89 3
9 90 2
9 91 4
9 92 1
9 93 5
9 94 2
9 95 4
9 96 5
9 97 3
9 98 2
9 99 3
9 100 1
10 11 2
10 12 3
10 13 2
10 14 5
10 15 4
10 16 5
10 17 4
10 18 5
10 19 3
10 20 3
10 21 2
10 22 5
10 23 2
10 24 1
10 25 2
10 26 2
10 27 5
10 28 4
10 29 3
10 30 5
10 31 4
10 32 5
10 33 3
10 34 2
10 35 3
10 36 3
10 37 5
10 38 2
10 39 1
10 40 3
10 41 2
10 42 2
10 43 3
10 44 1
10 45 4
10 46 4
10 47 1
10 48 1
10 49 1
10 50 1
10 51 2
10 52 5
10 53 1
10 54 5
10 55 5
10 56 3
10 57 2
10 58 4
10 59 1
10 60 5
10 61 2
10 62 3
10 63 5
10 64 2
10 65 2
10 66 4
10 67 1
10 68 2
10 69 3
10 70 1
10 71 4
10 72 4
10 73 5
10 74 1
10 75 4
10 76 3
10 77 4
10 78 3
10 79 2
10 80 5
10 81 3
10 82 5
10 83 4
10 84 3
10 85 1
10 86 5
10 87 2
10 88 4
10 89 1
10 90 2
10 91 4
10 92 2
10 93 2
10 94 1
10 95 1
10 96 2
10 97 5
10 98 5
10 99 5
10 100 5
11 12 5
11 13 2
11 14 3
11 15 1
11 16 4
11 17 5
11 18 3
11 19 3
11 20 1
11 21 1
11 22 4
11 23 2
11 24 1
11 25 2
11 26 5
11 27 5
11 28 2
11 29 3
11 30 4
11 31 4
11 32 4
11 33 2
11 34 4
11 35 5
11 36 4
11 37 1
11 38 4
11 39 3
11 40 2
11 41 2
11 42 4
11 43 2
11 44 1
11 45 5
11 46 4
11 47 1
11 48 1
11 49 4
11 50 4
11 51 2
11 52 5
11 53 4
11 54 2
11 55 3
11 56 4
11 57 3
11 58 5
11 59 5
11 60 3
11 61 4
11 62 2
11 63 4
11 64 5
11 65 1
11 66 3
11 67 5
11 68 1
11 69 2
11 70 3
11 71 3
11 72 1
11 73 2
11 74 5
11 75 5
11 76 1
11 77 4
11 78 5
11 79 4
11 80 4
11 81 3
11 82 5
11 83 3
11 84 5
11 85 1
11 86 5
11 87 4
11 88 4
11 89 2
11 90 3
11 91 2
11 92 3
11 93 5
11 94 5
11 95 1
11 96 5
11 97 2
11 98 4
11 99 3
11 100 5
12 13 3
12 14 3
12 15 4
12 16 4
12 17 1
12 18 3
12 19 1
12 20 1
12 21 1
12 22 3
12 23 5
12 24 5
12 25 1
12 26 5
12 27 2
12 28 4
12 29 5
12 30 3
12 31 5
12 32 4
12 33 2
12 34 4
12 35 4
12 36 2
12 37 1
12 38 3
12 39 1
12 40 3
12 41 5
12 42 3
12 43 3
12 44 5
12 45 4
12 46 4
12 47 2
12 48 1
12 49 5
12 50 2
12 51 5
12 52 4
12 53 2
12 54 2
12 55 2
12 56 4
12 57 3
12 58 1
12 59 5
12 60 4
12 61 3
12 62 5
12 63 3
12 64 4
12 65 5
12 66 5
12 67 3
12 68 3
12 69 4
12 70 3
12 71 5
12 72 1
12 73 1
12 74 2
12 75 2
12 76 5
12 77 2
12 78 1
12 79 1
12 80 3
12 81 2
12 82 4
12 83 5
12 84 1
12 85 5
12 86 3
12 87 3
12 88 2
12 89 2
12 90 3
12 91 2
12 92 4
12 93 3
12 94 3
12 95 1
12 96 3
12 97 4
12 98 4
12 99 2
12 100 2
13 14 2
13 15 4
13 16 1
13 17 3
13 18 4
13 19 1
13 20 4
13 21 1
13 22 1
13 23 2
13 24 1
13 25 2
13 26 4
13 27 5
13 28 2
13 29 4
13 30 3
13 31 4
13 32 3
13 33 5
13 34 2
13 35 2
13 36 4
13 37 1
13 38 2
13 39 4
13 40 2
13 41 3
13 42 3
13 43 2
13 44 4
13 45 5
13 46 1
13 47 4
13 48 3
13 49 4
13 50 2
13 51 1
13 52 4
13 53 4
13 54 2
13 55 3
13 56 3
13 57 2
13 58 4
13 59 1
13 60 5
13 61 1
13 62 1
13 63 1
13 64 2
13 65 1
13 66 3
13 67 1
13 68 3
13 69 4
13 70 2
13 71 4
13 72 3
13 73 2
13 74 3
13 75 5
13 76 1
13 77 5
13 78 5
13 79 1
13 80 5
13 81 1
13 82 3
13 83 2
13 84 1
13 85 3
13 86 2
13 87 5
13 88 1
13 89 1
13 90 3
13 91 2
13 92 4
13 93 3
13 94 4
13 95 3
13 96 3
13 97 2
13 98 1
13 99 4
13 100 3
14 15 2
14 16 5
14 17 4
14 18 3
14 19 3
14 20 1
14 21 1
14 22 2
14 23 2
14 24 3
14 25 1
14 26 3
14 27 5
14 28 5
14 29 5
14 30 1
14 31 5
14 32 3
14 33 5
14 34 5
14 35 3
14 36 2
14 37 2
14 38 3
14 39 5
14 40 5
14 41 2
14 42 2
14 43 2
14 44 2
14 45 3
14 46 5
14 47 4
14 48 3
14 49 4
14 50 4
14 51 3
14 52 4
14 53 3
14 54 2
14 55 3
14 56 3
14 57 5
14 58 4
14 59 5
14 60 2
14 61 3
14 62 2
14 63 1
14 64 1
14 65 1
14 66 3
14 67 2
14 68 4
14 69 3
14 70 2
14 71 1
14 72 2
14 73 4
14 74 3
14 75 4
14 76 3
14 77 3
14 78 3
14 79 2
14 80 2
14 81 1
14 82 2
14 83 3
14 84 2
14 85 1
14 86 2
14 87 1
14 88 4
14 89 2
14 90 1
14 91 4
14 92 1
14 93 3
14 94 5
14 95 5
14 96 3
14 97 2
14 98 4
14 99 5
14 100 3
15 16 1
15 17 5
15 18 1
15 19 3
15 20 4
15 21 2
15 22 2
15 23 1
15 24 1
15 25 5
15 26 1
15 27 4
15 28 5
15 29 4
15 30 2
15 31 3
15 32 1
15 33 2
15 34 5
15 35 2
15 36 2
15 37 3
15 38 1
15 39 4
15 40 5
15 41 3
15 42 4
15 43 1
15 44 3
15 45 3
15 46 4
15 47 2
15 48 1
15 49 2
15 50 3
15 51 4
15 52 1
15 53 1
15 54 1
15 55 1
15 56 3
15 57 5
15 58 3
15 59 3
15 60 2
15 61 3
15 62 2
15 63 1
15 64 5
15 65 1
15 66 3
15 67 4
15 68 5
15 69 2
15 70 2
15 71 3
15 72 5
15 73 4
15 74 2
15 75 2
15 76 4
15 77 2
15 78 1
15 79 1
15 80 2
15 81 3
15 82 5
15 83 5
15 84 4
15 85 4
15 86 2
15 87 5
15 88 5
15 89 1
15 90 3
15 91 3
15 92 2
15 93 1
15 94 1
15 95 4
15 96 5
15 97 5
15 98 4
15 99 4
15 100 4
16 17 2
16 18 1
16 19 1
16 20 4
16 21 4
16 22 2
16 23 1
16 24 3
16 25 2
16 26 3
16 27 5
16 28 4
16 29 3
16 30 3
16 31 4
16 32 2
16 33 2
16 34 1
16 35 1
16 36 1
16 37 4
16 38 2
16 39 3
16 40 4
16 41 4
16 42 1
16 43 2
16 44 2
16 45 2
16 46 4
16 47 4
16 48 5
16 49 5
16 50 2
16 51 4
16 52 5
16 53 1
16 54 2
16 55 2
16 56 3
16 57 1
16 58 4
16 59 1
16 60 3
16 61 5
16 62 5
16 63 1
16 64 3
16 65 3
16 66 5
16 67 2
16 68 5
16 69 1
16 70 3
16 71 2
16 72 4
16 73 1
16 74 1
16 75 5
16 76 1
16 77 3
16 78 4
16 79 5
16 80 4
16 81 2
16 82 1
16 83 2
16 84 5
16 85 5
16 86 2
16 87 4
16 88 5
16 89 1
16 90 2
16 91 4
16 92 4
16 93 2
16 94 3
16 95 5
16 96 4
16 97 4
16 98 2
16 99 5
16 100 2
17 18 3
17 19 1
17 20 1
17 21 2
17 22 4
17 23 5
17 24 2
17 25 4
17 26 4
17 27 3
17 28 3
17 29 3
17 30 2
17 31 5
17 32 3
17 33 5
17 34 3
17 35 5
17 36 3
17 37 2
17 38 3
17 39 5
17 40 1
17 41 5
17 42 5
17 43 2
17 44 3
17 45 5
17 46 3
17 47 2
17 48 2
17 49 4
17 50 2
17 51 5
17 52 3
17 53 1
17 54 1
17 55 4
17 56 3
17 57 2
17 58 4
17 59 4
17 60 4
17 61 3
17 62 3
17 63 2
17 64 3
17 65 1
17 66 3
17 67 1
17 68 5
17 69 2
17 70 2
17 71 3
17 72 1
17 73 3
17 74 2
17 75 3
17 76 1
17 77 1
17 78 5
17 79 1
17 80 4
17 81 5
17 82 1
17 83 4
17 84 4
17 85 4
17 86 5
17 87 3
17 88 4
17 89 2
17 90 2
17 91 5
17 92 4
17 93 4
17 94 1
17 95 2
17 96 2
17 97 5
17 98 3
17 99 3
17 100 2
18 19 1
18 20 5
18 21 4
18 22 1
18 23 4
18 24 2
18 25 2
18 26 4
18 27 4
18 28 5
18 29 2
18 30 1
18 31 1
18 32 4
18 33 1
18 34 1
18 35 3
18 36 1
18 37 2
18 38 5
18 39 5
18 40 2
18 41 5
18 42 5
18 43 4
18 44 1
18 45 5
18 46 2
18 47 5
18 48 5
18 49 4
18 50 4
18 51 4
18 52 4
18 53 4
18 54 1
18 55 2
18 56 5
18 57 2
18 58 4
18 59 3
18 60 1
18 61 5
18 62 3
18 63 5
18 64 1
18 65 5
18 66 1
18 67 1
18 68 4
18 69 2
18 70 5
18 71 5
18 72 5
18 73 2
18 74 2
18 75 3
18 76 2
18 77 5
18 78 4
18 79 2
18 80 2
18 81 1
18 82 5
18 83 4
18 84 1
18 85 1
18 86 5
18 87 2
18 88 4
18 89 3
18 90 5
18 91 5
18 92 5
18 93 2
18 94 1
18 95 3
18 96 5
18 97 4
18 98 4
18 99 3
18 100 5
19 20 3
19 21 2
19 22 5
19 23 2
19 24 4
19 25 1
19 26 5
19 27 5
19 28 1
19 29 5
19 30 4
19 31 3
19 32 3
19 33 4
19 34 2
19 35 4
19 36 1
19 37 2
19 38 2
19 39 3
19 40 2
19 41 4
19 42 2
19 43 5
19 44 4
19 45 5
19 46 4
19 47 1
19 48 5
19 49 2
19 50 1
19 51 4
19 52 5
19 53 2
19 54 4
19 55 3
19 56 3
19 57 1
19 58 3
19 59 3
19 60 5
19 61 5
19 62 4
19 63 3
19 64 5
19 65 4
19 66 1
19 67 3
19 68 3
19 69 4
19 70 1
19 71 1
19 72 5
19 73 5
19 74 3
19 75 3
19 76 1
19 77 4
19 78 1
19 79 2
19 80 4
19 81 1
19 82 1
19 83 4
19 84 1
19 85 1
19 86 1
19 87 2
19 88 2
19 89 4
19 90 1
19 91 2
19 92 3
19 93 1
19 94 2
19 95 2
19 96 2
19 97 3
19 98 3
19 99 1
19 100 2
20 21 2
20 22 5
20 23 4
20 24 4
20 25 5
20 26 3
20 27 3
20 28 5
20 29 4
20 30 3
20 31 1
20 32 3
20 33 2
20 34 1
20 35 4
20 36 5
20 37 3
20 38 1
20 39 5
20 40 1
20 41 1
20 42 3
20 43 5
20 44 2
20 45 3
20 46 1
20 47 1
20 48 4
20 49 2
20 50 2
20 51 4
20 52 4
20 53 1
20 54 3
20 55 1
20 56 3
20 57 4
20 58 1
20 59 2
20 60 4
20 61 5
20 62 1
20 63 4
20 64 1
20 65 3
20 66 1
20 67 3
20 68 2
20 69 3
20 70 5
20 71 5
20 72 3
20 73 2
20 74 2
20 75 1
20 76 4
20 77 4
20 78 2
20 79 2
20 80 1
20 81 4
20 82 2
20 83 4
20 84 4
20 85 2
20 86 3
20 87 4
20 88 4
20 89 4
20 90 5
20 91 5
20 92 3
20 93 4
20 94 1
20 95 5
20 96 2
20 97 3
20 98 2
20 99 3
20 100 5
21 22 2
21 23 3
21 24 3
21 25 3
21 26 2
21 27 4
21 28 4
21 29 1
21 30 4
21 31 3
21 32 4
21 33 1
21 34 1
21 35 2
21 36 1
21 37 2
21 38 4
21 39 5
21 40 5
21 41 2
21 42 1
21 43 4
21 44 2
21 45 2
21 46 3
21 47 4
21 48 4
21 49 3
21 50 4
21 51 5
21 52 1
21 53 3
21 54 4
21 55 1
21 56 1
21 57 2
21 58 5
21 59 1
21 60 2
21 61 4
21 62 1
21 63 5
21 64 5
21 65 3
21 66 3
21 67 4
21 68 3
21 69 3
21 70 5
21 71 4
21 72 5
21 73 2
21 74 1
21 75 4
21 76 4
21 77 4
21 78 5
21 79 2
21 80 1
21 81 4
21 82 4
21 83 5
21 84 5
21 85 1
21 86 5
21 87 1
21 88 3
21 89 3
21 90 4
21 91 2
21 92 5
21 93 3
21 94 2
21 95 4
21 96 4
21 97 1
21 98 1
21 99 2
21 100 2
22 23 5
22 24 3
22 25 1
22 26 5
22 27 5
22 28 2
22 29 3
22 30 1
22 31 3
22 32 1
22 33 5
22 34 5
22 35 5
22 36 1
22 37 3
22 38 5
22 39 1
22 40 2
22 41 4
22 42 5
22 43 4
22 44 1
22 45 2
22 46 4
22 47 4
22 48 4
22 49 2
22 50 3
22 51 4
22 52 2
22 53 2
22 54 2
22 55 3
22 56 2
22 57 4
22 58 2
22 59 1
22 60 5
22 61 4
22 62 2
22 63 3
22 64 3
22 65 4
22 66 4
22 67 4
22 68 1
22 69 1
22 70 3
22 71 3
22 72 1
22 73 3
22 74 2
22 75 1
22 76 2
22 77 5
22 78 5
22 79 4
22 80 5
22 81 2
22 82 3
22 83 2
22 84 2
22 85 5
22 86 5
22 87 2
22 88 4
22 89 1
22 90 3
22 91 3
22 92 1
22 93 3
22 94 5
22 95 2
22 96 5
22 97 3
22 98 2
22 99 4
22 100 4
23 24 3
23 25 4
23 26 3
23 27 2
23 28 3
23 29 5
23 30 1
23 31 5
23 32 5
23 33 2
23 34 4
23 35 3
23 36 1
23 37 4
23 38 4
23 39 5
23 40 1
23 41 5
23 42 3
23 43 4
23 44 1
23 45 1
23 46 3
23 47 2
23 48 4
23 49 2
23 50 2
23 51 1
23 52 3
23 53 2
23 54 3
23 55 2
23 56 1
23 57 2
23 58 2
23 59 4
23 60 3
23 61 1
23 62 2
23 63 1
23 64 2
23 65 5
23 66 5
23 67 2
23 68 1
23 69 1
23 70 1
23 71 1
23 72 5
23 73 1
23 74 3
23 75 3
23 76 1
23 77 1
23 78 3
23 79 2
23 80 2
23 81 1
23 82 4
23 83 4
23 84 1
23 85 2
23 86 1
23 87 3
23 88 2
23 89 3
23 90 2
23 91 3
23 92 5
23 93 1
23 94 1
23 95 5
23 96 2
23 97 1
23 98 1
23 99 2
23 100 4
24 25 2
24 26 1
24 27 4
24 28 4
24 29 5
24 30 3
24 31 5
24 32 3
24 33 4
24 34 1
24 35 2
24 36 1
24 37 5
24 38 1
24 39 1
24 40 5
24 41 2
24 42 2
24 43 4
24 44 1
24 45 1
24 46 2
24 47 5
24 48 2
24 49 4
24 50 2
24 51 1
24 52 1
24 53 2
24 54 3
24 55 2
24 56 3
24 57 2
24 58 5
24 59 5
24 60 3
24 61 2
24 62 2
24 63 1
24 64 2
24 65 2
24 66 5
24 67 4
24 68 5
24 69 2
24 70 3
24 71 1
24 72 3
24 73 1
24 74 4
24 75 3
24 76 5
24 77 3
24 78 2
24 79 3
24 80 2
24 81 5
24 82 5
24 83 3
24 84 4
24 85 2
24 86 4
24 87 3
24 88 2
24 89 1
24 90 4
24 91 1
24 92 1
24 93 2
24 94 3
24 95 2
24 96 4
24 97 2
24 98 2
24 99 3
24 100 1
25 26 3
25 27 2
25 28 1
25 29 2
25 30 3
25 31 2
25 32 3
25 33 1
25 34 3
25 35 1
25 36 2
25 37 1
25 38 1
25 39 4
25 40 4
25 41 1
25 42 3
25 43 4
25 44 4
25 45 4
25 46 4
25 47 4
25 48 1
25 49 5
25 50 1
25 51 5
25 52 4
25 53 5
25 54 1
25 55 2
25 56 5
25 57 1
25 58 5
25 59 1
25 60 4
25 61 1
25 62 5
25 63 2
25 64 2
25 65 1
25 66 4
25 67 1
25 68 2
25 69 2
25 70 4
25 71 2
25 72 5
25 73 3
25 74 4
25 75 4
25 76 2
25 77 2
25 78 4
25 79 2
25 80 2
25 81 1
25 82 2
25 83 4
25 84 3
25 85 3
25 86 3
25 87 4
25 88 4
25 89 5
25 90 5
25 91 2
25 92 3
25 93 3
25 94 3
25 95 4
25 96 1
25 97 2
25 98 2
25 99 3
25 100 1
26 27 3
26 28 5
26 29 3
26 30 4
26 31 3
26 32 1
26 33 4
26 34 3
26 35 2
26 36 1
26 37 1
26 38 2
26 39 2
26 40 2
26 41 2
26 42 1
26 43 1
26 44 1
26 45 5
26 46 5
26 47 5
26 48 5
26 49 2
26 50 4
26 51 1
26 52 1
26 53 2
26 54 3
26 55 3
26 56 4
26 57 3
26 58 4
26 59 1
26 60 5
26 61 3
26 62 4
26 63 2
26 64 3
26 65 5
26 66 3
26 67 4
26 68 1
26 69 2
26 70 1
26 71 5
26 72 5
26 73 2
26 74 5
26 75 3
26 76 1
26 77 4
26 78 4
26 79 5
26 80 4
26 81 1
26 82 2
26 83 1
26 84 4
26 85 5
26 86 4
26 87 3
26 88 4
26 89 1
26 90 1
26 91 1
26 92 3
26 93 5
26 94 1
26 95 2
26 96 5
26 97 4
26 98 1
26 99 4
26 100 5
27 28 1
27 29 2
27 30 1
27 31 2
27 32 5
27 33 4
27 34 5
27 35 1
27 36 1
27 37 2
27 38 1
27 39 4
27 40 5
27 41 3
27 42 1
27 43 3
27 44 4
27 45 4
27 46 2
27 47 4
27 48 4
27 49 5
27 50 4
27 51 1
27 52 4
27 53 4
27 54 2
27 55 5
27 56 5
27 57 1
27 58 2
27 59 3
27 60 3
27 61 4
27 62 1
27 63 1
27 64 3
27 65 3
27 66 4
27 67 5
27 68 1
27 69 3
27 70 4
27 71 3
27 72 3
27 73 4
27 74 4
27 75 2
27 76 3
27 77 1
27 78 3
27 79 4
27 80 2
27 81 5
27 82 2
27 83 3
27 84 1
27 85 4
27 86 3
27 87 5
27 88 1
27 89 1
27 90 1
27 91 2
27 92 3
27 93 3
27 94 3
27 95 4
27 96 2
27 97 3
27 98 2
27 99 1
27 100 1
28 29 3
28 30 2
28 31 5
28 32 1
28 33 3
28 34 2
28 35 5
28 36 4
28 37 1
28 38 3
28 39 5
28 40 3
28 41 1
28 42 2
28 43 4
28 44 3
28 45 1
28 46 2
28 47 5
28 48 2
28 49 4
28 50 4
28 51 3
28 52 4
28 53 1
28 54 2
28 55 4
28 56 1
28 57 5
28 58 3
28 59 3
28 60 3
28 61 2
28 62 1
28 63 3
28 64 3
28 65 1
28 66 3
28 67 1
28 68 2
28 69 2
28 70 1
28 71 2
28 72 1
28 73 2
28 74 1
28 75 2
28 76 2
28 77 5
28 78 1
28 79 2
28 80 2
28 81 5
28 82 5
28 83 4
28 84 1
28 85 1
28 86 1
28 87 5
28 88 1
28 89 2
28 90 2
28 91 4
28 92 4
28 93 1
28 94 5
28 95 2
28 96 1
28 97 4
28 98 1
28 99 4
28 100 1
29 30 3
29 31 3
29 32 4
29 33 3
29 34 2
29 35 4
29 36 3
29 37 3
29 38 1
29 39 1
29 40 3
29 41 2
29 42 2
29 43 2
29 44 2
29 45 4
29 46 1
29 47 4
29 48 4
29 49 3
29 50 1
29 51 5
29 52 3
29 53 5
29 54 5
29 55 3
29 56 1
29 57 3
29 58 2
29 59 5
29 60 5
29 61 4
29 62 4
29 63 3
29 64 1
29 65 1
29 66 2
29 67 3
29 68 3
29 69 2
29 70 3
29 71 5
29 72 4
29 73 4
29 74 3
29 75 4
29 76 5
29 77 3
29 78 2
29 79 1
29 80 4
29 81 3
29 82 3
29 83 1
29 84 3
29 85 4
29 86 2
29 87 1
29 88 4
29 89 4
29 90 1
29 91 5
29 92 1
29 93 1
29 94 3
29 95 3
29 96 3
29 97 5
29 98 2
29 99 1
29 100 2
30 31 3
30 32 4
30 33 5
30 34 2
30 35 3
30 36 4
30 37 1
30 38 4
30 39 4
30 40 5
30 41 2
30 42 1
30 43 4
30 44 2
30 45 1
30 46 2
30 47 2
30 48 4
30 49 5
30 50 1
30 51 3
30 52 1
30 53 1
30 54 1
30 55 3
30 56 4
30 57 2
30 58 5
30 59 2
30 60 3
30 61 5
30 62 2
30 63 4
30 64 3
30 65 3
30 66 4
30 67 5
30 68 4
30 69 1
30 70 2
30 71 4
30 72 2
30 73 2
30 74 1
30 75 3
30 76 2
30 77 4
30 78 1
30 79 3
30 80 5
30 81 3
30 82 5
30 83 2
30 84 1
30 85 1
30 86 5
30 87 3
30 88 1
30 89 5
30 90 5
30 91 5
30 92 4
30 93 1
30 94 2
30 95 3
30 96 2
30 97 1
30 98 4
30 99 2
30 100 3
31 32 4
31 33 5
31 34 1
31 35 3
31 36 3
31 37 2
31 38 4
31 39 2
31 40 1
31 41 3
31 42 2
31 43 4
31 44 2
31 45 4
31 46 2
31 47 1
31 48 4
31 49 4
31 50 5
31 51 1
31 52 5
31 53 2
31 54 3
31 55 4
31 56 3
31 57 1
31 58 5
31 59 3
31 60 2
31 61 4
31 62 5
31 63 3
31 64 3
31 65 4
31 66 2
31 67 4
31 68 1
31 69 4
31 70 2
31 71 1
31 72 5
31 73 2
31 74 3
31 75 2
31 76 3
31 77 3
31 78 2
31 79 5
31 80 1
31 81 1
31 82 2
31 83 3
31 84 3
31 85 3
31 86 1
31 87 5
31 88 1
31 89 2
31 90 1
31 91 1
31 92 4
31 93 4
31 94 3
31 95 3
31 96 4
31 97 1
31 98 5
31 99 4
31 100 4
32 33 3
32 34 1
32 35 1
32 36 1
32 37 3
32 38 1
32 39 4
32 40 4
32 41 2
32 42 3
32 43 3
32 44 4
32 45 5
32 46 3
32 47 5
32 48 2
32 49 5
32 50 2
32 51 4
32 52 4
32 53 4
32 54 3
32 55 1
32 56 2
32 57 3
32 58 4
32 59 3
32 60 1
32 61 5
32 62 1
32 63 1
32 64 3
32 65 3
32 66 4
32 67 4
32 68 5
32 69 4
32 70 2
32 71 4
32 72 5
32 73 2
32 74 1
32 75 5
32 76 4
32 77 3
32 78 2
32 79 3
32 80 5
32 81 5
32 82 2
32 83 3
32 84 3
32 85 1
32 86 1
32 87 4
32 88 1
32 89 1
32 90 5
32 91 4
32 92 4
32 93 5
32 94 1
32 95 1
32 96 3
32 97 4
32 98 2
32 99 1
32 100 4
33 34 4
33 35 1
33 36 3
33 37 3
33 38 2
33 39 2
33 40 5
33 41 3
33 42 3
33 43 1
33 44 2
33 45 1
33 46 5
33 47 1
33 48 3
33 49 1
33 50 4
33 51 1
33 52 1
33 53 3
33 54 2
33 55 4
33 56 1
33 57 5
33 58 3
33 59 2
33 60 1
33 61 2
33 62 4
33 63 5
33 64 1
33 65 3
33 66 2
33 67 3
33 68 1
33 69 5
33 70 4
33 71 1
33 72 4
33 73 3
33 74 5
33 75 1
33 76 3
33 77 4
33 78 1
33 79 4
33 80 1
33 81 2
33 82 1
33 83 5
33 84 3
33 85 2
33 86 3
33 87 2
33 88 1
33 89 3
33 90 2
33 91 2
33 92 3
33 93 2
33 94 1
33 95 5
33 96 4
33 97 1
33 98 1
33 99 2
33 100 4
34 35 5
34 36 4
34 37 1
34 38 5
34 39 5
34 40 5
34 41 4
34 42 3
34 43 5
34 44 5
34 45 4
34 46 1
34 47 2
34 48 4
34 49 3
34 50 4
34 51 5
34 52 1
34 53 3
34 54 1
34 55 1
34 56 4
34 57 4
34 58 4
34 59 2
34 60 1
34 61 2
34 62 4
34 63 4
34 64 2
34 65 5
34 66 4
34 67 1
34 68 1
34 69 3
34 70 5
34 71 1
34 72 4
34 73 5
34 74 4
34 75 1
34 76 4
34 77 4
34 78 4
34 79 5
34 80 5
34 81 3
34 82 3
34 83 4
34 84 3
34 85 4
34 86 5
34 87 5
34 88 4
34 89 4
34 90 2
34 91 3
34 92 3
34 93 4
34 94 1
34 95 1
34 96 5
34 97 5
34 98 3
34 99 4
34 100 3
35 36 3
35 37 5
35 38 4
35 39 2
35 40 1
35 41 2
35 42 1
35 43 5
35 44 5
35 45 3
35 46 4
35 47 4
35 48 1
35 49 5
35 50 2
35 51 5
35 52 4
35 53 5
35 54 2
35 55 2
35 56 4
35 57 4
35 58 1
35 59 3
35 60 1
35 61 4
35 62 2
35 63 2
35 64 5
35 65 1
35 66 3
35 67 5
35 68 4
35 69 1
35 70 5
35 71 2
35 72 3
35 73 1
35 74 1
35 75 4
35 76 1
35 77 2
35 78 1
35 79 5
35 80 1
35 81 1
35 82 1
35 83 1
35 84 4
35 85 4
35 86 5
35 87 4
35 88 5
35 89 5
35 90 3
35 91 1
35 92 4
35 93 3
35 94 4
35 95 3
35 96 3
35 97 2
35 98 3
35 99 4
35 100 4
36 37 4
36 38 4
36 39 4
36 40 2
36 41 3
36 42 5
36 43 4
36 44 3
36 45 5
36 46 2
36 47 1
36 48 2
36 49 3
36 50 2
36 51 4
36 52 2
36 53 5
36 54 3
36 55 3
36 56 2
36 57 3
36 58 5
36 59 1
36 60 1
36 61 1
36 62 1
36 63 2
36 64 4
36 65 4
36 66 5
36 67 1
36 68 5
36 69 1
36 70 5
36 71 1
36 72 5
36 73 2
36 74 1
36 75 4
36 76 1
36 77 2
36 78 1
36 79 3
36 80 4
36 81 4
36 82 3
36 83 4
36 84 5
36 85 5
36 86 1
36 87 1
36 88 1
36 89 3
36 90 3
36 91 3
36 92 1
36 93 1
36 94 1
36 95 5
36 96 1
36 97 2
36 98 2
36 99 5
36 100 5
37 38 5
37 39 5
37 40 1
37 41 5
37 42 5
37 43 4
37 44 2
37 45 5
37 46 1
37 47 4
37 48 3
37 49 5
37 50 5
37 51 5
37 52 2
37 53 3
37 54 4
37 55 2
37 56 5
37 57 1
37 58 1
37 59 3
37 60 5
37 61 3
37 62 1
37 63 2
37 64 4
37 65 3
37 66 2
37 67 1
37 68 3
37 69 4
37 70 4
37 71 2
37 72 1
37 73 2
37 74 1
37 75 5
37 76 2
37 77 2
37 78 1
37 79 5
37 80 5
37 81 2
37 82 3
37 83 4
37 84 3
37 85 1
37 86 5
37 87 5
37 88 1
37 89 1
37 90 2
37 91 1
37 92 2
37 93 3
37 94 4
37 95 2
37 96 2
37 97 4
37 98 1
37 99 2
37 100 2
38 39 5
38 40 4
38 41 2
38 42 2
38 43 3
38 44 4
38 45 4
38 46 5
38 47 2
38 48 1
38 49 1
38 50 4
38 51 2
38 52 5
38 53 4
38 54 4
38 55 5
38 56 5
38 57 3
38 58 1
38 59 4
38 60 2
38 61 3
38 62 4
38 63 5
38 64 1
38 65 1
38 66 5
38 67 5
38 68 3
38 69 3
38 70 5
38 71 4
38 72 5
38 73 4
38 74 4
38 75 5
38 76 4
38 77 3
38 78 2
38 79 4
38 80 2
38 81 5
38 82 5
38 83 5
38 84 5
38 85 2
38 86 2
38 87 3
38 88 3
38 89 1
38 90 1
38 91 3
38 92 5
38 93 3
38 94 5
38 95 1
38 96 2
38 97 3
38 98 3
38 99 3
38 100 1
39 40 3
39 41 5
39 42 3
39 43 4
39 44 4
39 45 2
39 46 3
39 47 4
39 48 4
39 49 5
39 50 3
39 51 1
39 52 2
39 53 3
39 54 4
39 55 2
39 56 2
39 57 2
39 58 1
39 59 5
39 60 2
39 61 1
39 62 5
39 63 3
39 64 2
39 65 4
39 66 3
39 67 1
39 68 5
39 69 1
39 70 3
39 71 3
39 72 2
39 73 3
39 74 3
39 75 4
39 76 2
39 77 5
39 78 2
39 79 2
39 80 2
39 81 2
39 82 2
39 83 4
39 84 3
39 85 4
39 86 1
39 87 5
39 88 2
39 89 5
39 90 3
39 91 2
39 92 2
39 93 4
39 94 3
39 95 2
39 96 4
39 97 3
39 98 2
39 99 2
39 100 5
40 41 4
40 42 2
40 43 1
40 44 4
40 45 2
40 46 3
40 47 1
40 48 3
40 49 4
40 50 3
40 51 5
40 52 3
40 53 5
40 54 5
40 55 3
40 56 4
40 57 4
40 58 2
40 59 3
40 60 2
40 61 3
40 62 5
40 63 3
40 64 1
40 65 3
40 66 2
40 67 4
40 68 1
40 69 2
40 70 4
40 71 2
40 72 1
40 73 5
40 74 2
40 75 1
40 76 5
40 77 3
40 78 2
40 79 1
40 80 4
40 81 3
40 82 4
40 83 1
40 84 3
40 85 4
40 86 3
40 87 4
40 88 5
40 89 2
40 90 3
40 91 5
40 92 2
40 93 2
40 94 4
40 95 3
40 96 4
40 97 4
40 98 1
40 99 1
40 100 3
41 42 1
41 43 2
41 44 3
41 45 3
41 46 1
41 47 1
41 48 5
41 49 5
41 50 4
41 51 1
41 52 2
41 53 3
41 54 2
41 55 4
41 56 5
41 57 1
41 58 2
41 59 4
41 60 4
41 61 1
41 62 4
41 63 4
41 64 4
41 65 2
41 66 2
41 67 4
41 68 3
41 69 4
41 70 4
41 71 5
41 72 4
41 73 2
41 74 3
41 75 4
41 76 2
41 77 2
41 78 5
41 79 3
41 80 4
41 81 5
41 82 4
41 83 5
41 84 4
41 85 1
41 86 5
41 87 3
41 88 1
41 89 3
41 90 1
41 91 5
41 92 1
41 93 2
41 94 3
41 95 4
41 96 1
41 97 1
41 98 1
41 99 1
41 100 3
42 43 1
42 44 2
42 45 2
42 46 3
42 47 4
42 48 5
42 49 2
42 50 4
42 51 2
42 52 2
42 53 3
42 54 5
42 55 1
42 56 1
42 57 3
42 58 3
42 59 1
42 60 2
42 61 4
42 62 4
42 63 5
42 64 3
42 65 2
42 66 2
42 67 4
42 68 2
42 69 1
42 70 1
42 71 2
42 72 5
42 73 1
42 74 1
42 75 5
42 76 5
42 77 3
42 78 5
42 79 3
42 80 3
42 81 5
42 82 1
42 83 1
42 84 1
42 85 5
42 86 3
42 87 5
42 88 3
42 89 3
42 90 1
42 91 3
42 92 3
42 93 5
42 94 1
42 95 5
42 96 4
42 97 3
42 98 4
42 99 1
42 100 2
43 44 2
43 45 1
43 46 1
43 47 3
43 48 5
43 49 3
43 50 4
43 51 1
43 52 4
43 53 3
43 54 1
43 55 3
43 56 4
43 57 1
43 58 2
43 59 4
43 60 3
43 61 1
43 62 3
43 63 5
43 64 1
43 65 1
43 66 3
43 67 3
43 68 2
43 69 4
43 70 2
43 71 3
43 72 1
43 73 1
43 74 5
43 75 5
43 76 3
43 77 5
43 78 2
43 79 2
43 80 5
43 81 5
43 82 2
43 83 4
43 84 4
43 85 2
43 86 3
43 87 5
43 88 1
43 89 2
43 90 4
43 91 5
43 92 2
43 93 4
43 94 2
43 95 4
43 96 3
43 97 2
43 98 2
43 99 2
43 100 1
44 45 4
44 46 2
44 47 3
44 48 3
44 49 5
44 50 2
44 51 2
44 52 1
44 53 1
44 54 5
44 55 5
44 56 4
44 57 3
44 58 5
44 59 4
44 60 3
44 61 2
44 62 2
44 63 5
44 64 4
44 65 4
44 66 3
44 67 2
44 68 1
44 69 5
44 70 2
44 71 5
44 72 5
44 73 2
44 74 2
44 75 3
44 76 2
44 77 2
44 78 5
44 79 4
44 80 2
44 81 5
44 82 2
44 83 5
44 84 4
44 85 4
44 86 3
44 87 1
44 88 1
44 89 4
44 90 4
44 91 4
44 92 5
44 93 4
44 94 5
44 95 1
44 96 1
44 97 2
44 98 2
44 99 2
44 100 3
45 46 5
45 47 3
45 48 5
45 49 2
45 50 2
45 51 1
45 52 2
45 53 3
45 54 3
45 55 3
45 56 4
45 57 2
45 58 2
45 59 1
45 60 4
45 61 4
45 62 2
45 63 3
45 64 4
45 65 1
45 66 3
45 67 1
45 68 3
45 69 5
45 70 2
45 71 1
45 72 1
45 73 1
45 74 5
45 75 1
45 76 5
45 77 2
45 78 1
45 79 4
45 80 1
45 81 1
45 82 2
45 83 4
45 84 2
45 85 3
45 86 2
45 87 3
45 88 3
45 89 2
45 90 3
45 91 4
45 92 1
45 93 1
45 94 2
45 95 4
45 96 3
45 97 1
45 98 3
45 99 1
45 100 3
46 47 3
46 48 3
46 49 2
46 50 4
46 51 3
46 52 3
46 53 3
46 54 3
46 55 4
46 56 5
46 57 5
46 58 1
46 59 2
46 60 5
46 61 3
46 62 4
46 63 3
46 64 1
46 65 1
46 66 4
46 67 3
46 68 5
46 69 2
46 70 4
46 71 2
46 72 1
46 73 4
46 74 4
46 75 2
46 76 3
46 77 4
46 78 1
46 79 5
46 80 3
46 81 4
46 82 4
46 83 3
46 84 2
46 85 4
46 86 3
46 87 3
46 88 1
46 89 4
46 90 1
46 91 1
46 92 3
46 93 2
46 94 1
46 95 4
46 96 3
46 97 5
46 98 1
46 99 4
46 100 5
47 48 3
47 49 5
47 50 2
47 51 1
47 52 2
47 53 3
47 54 1
47 55 4
47 56 3
47 57 3
47 58 3
47 59 5
47 60 3
47 61 4
47 62 5
47 63 3
47 64 5
47 65 2
47 66 5
47 67 1
47 68 4
47 69 1
47 70 1
47 71 1
47 72 5
47 73 1
47 74 5
47 75 1
47 76 3
47 77 4
47 78 1
47 79 3
47 80 3
47 81 3
47 82 4
47 83 3
47 84 4
47 85 4
47 86 4
47 87 2
47 88 4
47 89 1
47 90 5
47 91 2
47 92 2
47 93 3
47 94 2
47 95 4
47 96 4
47 97 3
47 98 3
47 99 2
47 100 1
48 49 4
48 50 3
48 51 5
48 52 1
48 53 4
48 54 4
48 55 5
48 56 3
48 57 3
48 58 1
48 59 3
48 60 1
48 61 4
48 62 3
48 63 2
48 64 5
48 65 5
48 66 1
48 67 1
48 68 2
48 69 4
48 70 5
48 71 3
48 72 4
48 73 2
48 74 5
48 75 5
48 76 2
48 77 5
48 78 2
48 79 5
48 80 5
48 81 1
48 82 2
48 83 1
48 84 4
48 85 5
48 86 2
48 87 2
48 88 4
48 89 1
48 90 4
48 91 3
48 92 5
48 93 5
48 94 3
48 95 3
48 96 5
48 97 1
48 98 1
48 99 5
48 100 3
49 50 3
49 51 3
49 52 4
49 53 3
49 54 3
49 55 5
49 56 5
49 57 4
49 58 3
49 59 5
49 60 4
49 61 2
49 62 1
49 63 4
49 64 5
49 65 2
49 66 3
49 67 1
49 68 2
49 69 5
49 70 3
49 71 4
49 72 4
49 73 1
49 74 3
49 75 4
49 76 4
49 77 2
49 78 1
49 79 5
49 80 1
49 81 4
49 82 4
49 83 2
49 84 2
49 85 5
49 86 5
49 87 1
49 88 4
49 89 4
49 90 5
49 91 3
49 92 2
49 93 4
49 94 2
49 95 4
49 96 1
49 97 5
49 98 2
49 99 1
49 100 4
50 51 3
50 52 5
50 53 3
50 54 5
50 55 2
50 56 4
50 57 2
50 58 5
50 59 2
50 60 2
50 61 4
50 62 1
50 63 2
50 64 4
50 65 4
50 66 1
50 67 5
50 68 5
50 69 3
50 70 3
50 71 1
50 72 4
50 73 4
50 74 4
50 75 4
50 76 4
50 77 1
50 78 5
50 79 5
50 80 3
50 81 3
50 82 4
50 83 2
50 84 3
50 85 1
50 86 1
50 87 5
50 88 5
50 89 4
50 90 5
50 91 3
50 92 3
50 93 4
50 94 5
50 95 1
50 96 5
50 97 1
50 98 5
50 99 2
50 100 4
51 52 1
51 53 1
51 54 2
51 55 1
51 56 5
51 57 2
51 58 3
51 59 5
51 60 2
51 61 3
51 62 1
51 63 5
51 64 1
51 65 5
51 66 3
51 67 1
51 68 5
51 69 3
51 70 1
51 71 1
51 72 4
51 73 4
51 74 1
51 75 1
51 76 5
51 77 5
51 78 4
51 79 1
51 80 3
51 81 2
51 82 3
51 83 3
51 84 3
51 85 1
51 86 5
51 87 5
51 88 2
51 89 3
51 90 3
51 91 5
51 92 4
51 93 4
51 94 5
51 95 4
51 96 3
51 97 3
51 98 1
51 99 5
51 100 1
52 53 5
52 54 3
52 55 2
52 56 4
52 57 2
52 58 3
52 59 4
52 60 4
52 61 2
52 62 5
52 63 4
52 64 4
52 65 5
52 66 1
52 67 3
52 68 1
52 69 4
52 70 1
52 71 4
52 72 4
52 73 1
52 74 1
52 75 5
52 76 5
52 77 5
52 78 5
52 79 2
52 80 1
52 81 2
52 82 4
52 83 4
52 84 5
52 85 2
52 86 3
52 87 3
52 88 3
52 89 4
52 90 4
52 91 4
52 92 3
52 93 2
52 94 4
52 95 3
52 96 1
52 97 1
52 98 3
52 99 4
52 100 1
53 54 3
53 55 4
53 56 4
53 57 5
53 58 4
53 59 4
53 60 2
53 61 4
53 62 4
53 63 3
53 64 4
53 65 4
53 66 1
53 67 1
53 68 5
53 69 3
53 70 4
53 71 2
53 72 3
53 73 1
53 74 1
53 75 4
53 76 1
53 77 1
53 78 3
53 79 1
53 80 5
53 81 3
53 82 3
53 83 1
53 84 5
53 85 1
53 86 4
53 87 3
53 88 1
53 89 3
53 90 1
53 91 5
53 92 4
53 93 4
53 94 3
53 95 3
53 96 5
53 97 2
53 98 1
53 99 5
53 100 4
54 55 4
54 56 3
54 57 1
54 58 5
54 59 2
54 60 4
54 61 1
54 62 3
54 63 5
54 64 3
54 65 5
54 66 1
54 67 4
54 68 2
54 69 2
54 70 4
54 71 2
54 72 4
54 73 3
54 74 1
54 75 1
54 76 4
54 77 5
54 78 5
54 79 5
54 80 1
54 81 5
54 82 4
54 83 5
54 84 2
54 85 2
54 86 1
54 87 2
54 88 3
54 89 1
54 90 1
54 91 3
54 92 4
54 93 2
54 94 1
54 95 5
54 96 3
54 97 4
54 98 5
54 99 3
54 100 5
55 56 1
55 57 5
55 58 2
55 59 1
55 60 4
55 61 2
55 62 3
55 63 3
55 64 2
55 65 5
55 66 4
55 67 1
55 68 4
55 69 3
55 70 1
55 71 5
55 72 1
55 73 4
55 74 2
55 75 2
55 76 2
55 77 4
55 78 4
55 79 2
55 80 3
55 81 4
55 82 5
55 83 1
55 84 3
55 85 2
55 86 4
55 87 1
55 88 1
55 89 4
55 90 4
55 91 4
55 92 4
55 93 4
55 94 1
55 95 5
55 96 1
55 97 5
55 98 3
55 99 3
55 100 3
56 57 2
56 58 2
56 59 1
56 60 4
56 61 2
56 62 4
56 63 4
56 64 5
56 65 5
56 66 2
56 67 1
56 68 5
56 69 1
56 70 4
56 71 4
56 72 5
56 73 1
56 74 1
56 75 5
56 76 2
56 77 1
56 78 2
56 79 3
56 80 2
56 81 2
56 82 4
56 83 5
56 84 5
56 85 1
56 86 4
56 87 4
56 88 1
56 89 3
56 90 4
56 91 2
56 92 1
56 93 3
56 94 5
56 95 2
56 96 2
56 97 3
56 98 2
56 99 5
56 100 1
57 58 2
57 59 3
57 60 4
57 61 3
57 62 3
57 63 2
57 64 1
57 65 1
57 66 4
57 67 3
57 68 5
57 69 3
57 70 5
57 71 4
57 72 3
57 73 4
57 74 5
57 75 4
57 76 5
57 77 1
57 78 1
57 79 3
57 80 5
57 81 4
57 82 2
57 83 2
57 84 3
57 85 3
57 86 1
57 87 1
57 88 5
57 89 1
57 90 3
57 91 1
57 92 4
57 93 1
57 94 2
57 95 3
57 96 2
57 97 4
57 98 3
57 99 4
57 100 3
58 59 3
58 60 2
58 61 5
58 62 1
58 63 2
58 64 2
58 65 3
58 66 2
58 67 4
58 68 5
58 69 5
58 70 5
58 71 3
58 72 1
58 73 5
58 74 1
58 75 1
58 76 4
58 77 3
58 78 1
58 79 1
58 80 2
58 81 2
58 82 5
58 83 3
58 84 4
58 85 5
58 86 3
58 87 4
58 88 1
58 89 3
58 90 4
58 91 4
58 92 2
58 93 2
58 94 1
58 95 3
58 96 4
58 97 5
58 98 5
58 99 4
58 100 3
59 60 3
59 61 5
59 62 2
59 63 5
59 64 3
59 65 2
59 66 2
59 67 5
59 68 2
59 69 4
59 70 3
59 71 3
59 72 4
59 73 4
59 74 3
59 75 1
59 76 5
59 77 5
59 78 1
59 79 2
59 80 2
59 81 3
59 82 1
59 83 3
59 84 2
59 85 5
59 86 2
59 87 4
59 88 5
59 89 4
59 90 5
59 91 1
59 92 1
59 93 2
59 94 3
59 95 1
59 96 2
59 97 2
59 98 2
59 99 5
59 100 5
60 61 4
60 62 1
60 63 1
60 64 5
60 65 3
60 66 4
60 67 2
60 68 5
60 69 4
60 70 3
60 71 4
60 72 4
60 73 3
60 74 4
60 75 5
60 76 2
60 77 3
60 78 3
60 79 4
60 80 1
60 81 1
60 82 3
60 83 2
60 84 2
60 85 4
60 86 2
60 87 3
60 88 3
60 89 1
60 90 4
60 91 5
60 92 5
60 93 5
60 94 1
60 95 5
60 96 2
60 97 5
60 98 5
60 99 4
60 100 4
61 62 5
61 63 5
61 64 2
61 65 3
61 66 3
61 67 2
61 68 4
61 69 4
61 70 4
61 71 2
61 72 2
61 73 2
61 74 1
61 75 5
61 76 1
61 77 1
61 78 2
61 79 1
61 80 2
61 81 1
61 82 3
61 83 3
61 84 2
61 85 1
61 86 3
61 87 1
61 88 2
61 89 2
61 90 2
61 91 5
61 92 2
61 93 1
61 94 5
61 95 3
61 96 4
61 97 2
61 98 2
61 99 2
61 100 2
62 63 2
62 64 5
62 65 1
62 66 1
62 67 5
62 68 4
62 69 4
62 70 2
62 71 2
62 72 1
62 73 4
62 74 5
62 75 1
62 76 3
62 77 4
62 78 1
62 79 5
62 80 2
62 81 5
62 82 1
62 83 1
62 84 2
62 85 2
62 86 1
62 87 2
62 88 4
62 89 5
62 90 1
62 91 3
62 92 2
62 93 5
62 94 5
62 95 3
62 96 2
62 97 3
62 98 5
62 99 5
62 100 5
63 64 5
63 65 4
63 66 4
63 67 5
63 68 5
63 69 4
63 70 2
63 71 4
63 72 3
63 73 4
63 74 3
63 75 4
63 76 4
63 77 4
63 78 3
63 79 5
63 80 4
63 81 3
63 82 2
63 83 1
63 84 5
63 85 4
63 86 3
63 87 2
63 88 5
63 89 2
63 90 5
63 91 3
63 92 1
63 93 3
63 94 3
63 95 3
63 96 2
63 97 1
63 98 4
63 99 1
63 100 3
64 65 5
64 66 3
64 67 5
64 68 3
64 69 2
64 70 2
64 71 5
64 72 3
64 73 1
64 74 4
64 75 3
64 76 1
64 77 1
64 78 4
64 79 3
64 80 4
64 81 4
64 82 1
64 83 1
64 84 1
64 85 3
64 86 3
64 87 2
64 88 1
64 89 4
64 90 1
64 91 2
64 92 3
64 93 4
64 94 2
64 95 1
64 96 1
64 97 1
64 98 2
64 99 1
64 100 5
65 66 5
65 67 1
65 68 5
65 69 3
65 70 4
65 71 4
65 72 5
65 73 3
65 74 5
65 75 4
65 76 3
65 77 4
65 78 1
65 79 1
65 80 1
65 81 5
65 82 2
65 83 4
65 84 2
65 85 5
65 86 5
65 87 4
65 88 2
65 89 3
65 90 5
65 91 2
65 92 3
65 93 2
65 94 2
65 95 4
65 96 4
65 97 3
65 98 1
65 99 1
65 100 3
66 67 4
66 68 3
66 69 5
66 70 3
66 71 4
66 72 5
66 73 1
66 74 3
66 75 4
66 76 3
66 77 3
66 78 2
66 79 3
66 80 3
66 81 4
66 82 1
66 83 3
66 84 4
66 85 5
66 86 5
66 87 1
66 88 4
66 89 5
66 90 4
66 91 5
66 92 2
66 93 1
66 94 1
66 95 5
66 96 4
66 97 5
66 98 2
66 99 4
66 100 3
67 68 2
67 69 5
67 70 1
67 71 2
67 72 3
67 73 3
67 74 3
67 75 4
67 76 5
67 77 4
67 78 2
67 79 2
67 80 1
67 81 1
67 82 4
67 83 2
67 84 2
67 85 3
67 86 2
67 87 4
67 88 4
67 89 1
67 90 4
67 91 3
67 92 4
67 93 1
67 94 2
67 95 5
67 96 1
67 97 2
67 98 2
67 99 2
67 100 5
68 69 1
68 70 4
68 71 2
68 72 1
68 73 2
68 74 1
68 75 3
68 76 3
68 77 2
68 78 2
68 79 4
68 80 5
68 81 3
68 82 3
68 83 4
68 84 1
68 85 2
68 86 2
68 87 3
68 88 4
68 89 5
68 90 4
68 91 4
68 92 3
68 93 2
68 94 4
68 95 2
68 96 4
68 97 4
68 98 2
68 99 5
68 100 2
69 70 5
69 71 3
69 72 2
69 73 1
69 74 3
69 75 3
69 76 3
69 77 2
69 78 3
69 79 5
69 80 1
69 81 2
69 82 3
69 83 4
69 84 5
69 85 4
69 86 1
69 87 3
69 88 3
69 89 1
69 90 1
69 91 5
69 92 1
69 93 5
69 94 3
69 95 5
69 96 4
69 97 3
69 98 1
69 99 4
69 100 4
70 71 4
70 72 4
70 73 2
70 74 2
70 75 1
70 76 2
70 77 5
70 78 3
70 79 4
70 80 3
70 81 3
70 82 1
70 83 2
70 84 4
70 85 5
70 86 1
70 87 1
70 88 2
70 89 4
70 90 3
70 91 2
70 92 5
70 93 1
70 94 5
70 95 2
70 96 2
70 97 2
70 98 2
70 99 2
70 100 1
71 72 5
71 73 5
71 74 2
71 75 2
71 76 3
71 77 4
71 78 1
71 79 3
71 80 5
71 81 3
71 82 4
71 83 4
71 84 4
71 85 1
71 86 1
71 87 2
71 88 5
71 89 2
71 90 2
71 91 5
71 92 2
71 93 1
71 94 3
71 95 4
71 96 2
71 97 3
71 98 1
71 99 1
71 100 3
72 73 4
72 74 4
72 75 3
72 76 2
72 77 3
72 78 3
72 79 3
72 80 3
72 81 3
72 82 2
72 83 2
72 84 1
72 85 5
72 86 4
72 87 2
72 88 5
72 89 1
72 90 2
72 91 5
72 92 5
72 93 1
72 94 5
72 95 1
72 96 4
72 97 2
72 98 5
72 99 2
72 100 5
73 74 1
73 75 1
73 76 3
73 77 5
73 78 3
73 79 3
73 80 4
73 81 2
73 82 5
73 83 2
73 84 2
73 85 4
73 86 2
73 87 4
73 88 5
73 89 5
73 90 5
73 91 1
73 92 3
73 93 1
73 94 5
73 95 3
73 96 5
73 97 2
73 98 5
73 99 1
73 100 5
74 75 4
74 76 1
74 77 2
74 78 5
74 79 2
74 80 2
74 81 4
74 82 5
74 83 4
74 84 2
74 85 4
74 86 3
74 87 5
74 88 1
74 89 3
74 90 1
74 91 1
74 92 4
74 93 1
74 94 5
74 95 1
74 96 2
74 97 5
74 98 2
74 99 2
74 100 3
75 76 1
75 77 1
75 78 4
75 79 5
75 80 5
75 81 1
75 82 1
75 83 1
75 84 3
75 85 4
75 86 3
75 87 3
75 88 5
75 89 5
75 90 3
75 91 3
75 92 4
75 93 2
75 94 4
75 95 1
75 96 1
75 97 2
75 98 5
75 99 3
75 100 1
76 77 1
76 78 3
76 79 5
76 80 3
76 81 5
76 82 5
76 83 1
76 84 1
76 85 2
76 86 3
76 87 3
76 88 4
76 89 2
76 90 5
76 91 2
76 92 1
76 93 2
76 94 1
76 95 5
76 96 2
76 97 1
76 98 3
76 99 2
76 100 2
77 78 1
77 79 2
77 80 3
77 81 5
77 82 5
77 83 4
77 84 5
77 85 5
77 86 4
77 87 1
77 88 4
77 89 3
77 90 3
77 91 1
77 92 2
77 93 4
77 94 1
77 95 4
77 96 5
77 97 2
77 98 4
77 99 1
77 100 3
78 79 5
78 80 2
78 81 3
78 82 2
78 83 4
78 84 1
78 85 1
78 86 4
78 87 3
78 88 1
78 89 4
78 90 1
78 91 4
78 92 4
78 93 5
78 94 3
78 95 4
78 96 4
78 97 2
78 98 5
78 99 4
78 100 3
79 80 5
79 81 2
79 82 2
79 83 3
79 84 1
79 85 5
79 86 4
79 87 3
79 88 2
79 89 1
79 90 4
79 91 3
79 92 5
79 93 3
79 94 3
79 95 5
79 96 3
79 97 4
79 98 2
79 99 2
79 100 4
80 81 5
80 82 4
80 83 4
80 84 3
80 85 5
80 86 3
80 87 2
80 88 3
80 89 3
80 90 4
80 91 1
80 92 5
80 93 5
80 94 4
80 95 3
80 96 5
80 97 4
80 98 2
80 99 3
80 100 2
81 82 2
81 83 4
81 84 1
81 85 3
81 86 2
81 87 3
81 88 2
81 89 2
81 90 5
81 91 4
81 92 5
81 93 4
81 94 5
81 95 2
81 96 2
81 97 1
81 98 1
81 99 5
81 100 4
82 83 3
82 84 5
82 85 4
82 86 5
82 87 5
82 88 4
82 89 3
82 90 4
82 91 5
82 92 2
82 93 2
82 94 5
82 95 1
82 96 4
82 97 3
82 98 4
82 99 3
82 100 1
83 84 4
83 85 3
83 86 3
83 87 4
83 88 5
83 89 3
83 90 4
83 91 4
83 92 1
83 93 1
83 94 2
83 95 1
83 96 2
83 97 5
83 98 4
83 99 5
83 100 3
84 85 4
84 86 1
84 87 2
84 88 4
84 89 2
84 90 2
84 91 5
84 92 4
84 93 2
84 94 5
84 95 1
84 96 5
84 97 2
84 98 1
84 99 1
84 100 4
85 86 2
85 87 1
85 88 2
85 89 3
85 90 1
85 91 2
85 92 2
85 93 4
85 94 3
85 95 5
85 96 3
85 97 1
85 98 5
85 99 3
85 100 4
86 87 3
86 88 1
86 89 5
86 90 1
86 91 4
86 92 3
86 93 5
86 94 3
86 95 3
86 96 2
86 97 2
86 98 1
86 99 3
86 100 1
87 88 3
87 89 1
87 90 5
87 91 4
87 92 1
87 93 2
87 94 5
87 95 1
87 96 5
87 97 3
87 98 5
87 99 5
87 100 5
88 89 3
88 90 4
88 91 4
88 92 4
88 93 1
88 94 3
88 95 1
88 96 2
88 97 1
88 98 4
88 99 3
88 100 5
89 90 5
89 91 3
89 92 2
89 93 4
89 94 3
89 95 5
89 96 2
89 97 5
89 98 2
89 99 5
89 100 4
90 91 3
90 92 3
90 93 5
90 94 5
90 95 3
90 96 5
90 97 5
90 98 3
90 99 4
90 100 3
91 92 2
91 93 2
91 94 5
91 95 3
91 96 4
91 97 3
91 98 5
91 99 5
91 100 2
92 93 4
92 94 4
92 95 4
92 96 3
92 97 1
92 98 2
92 99 4
92 100 1
93 94 5
93 95 3
93 96 5
93 97 3
93 98 2
93 99 1
93 100 3
94 95 1
94 96 1
94 97 4
94 98 5
94 99 2
94 100 4
95 96 4
95 97 5
95 98 4
95 99 3
95 100 4
96 97 2
96 98 5
96 99 5
96 100 4
97 98 3
97 99 5
97 100 3
98 99 2
98 100 5
99 100 5
